letting numberLocations be  49
letting costs be function (
(0,0) --> 0,
(0,1) --> 25,
(0,2) --> 15,
(0,3) --> 20,
(0,4) --> 7,
(0,5) --> 25,
(0,6) --> 9,
(0,7) --> 14,
(0,8) --> 16,
(0,9) --> 24,
(0,10) --> 26,
(0,11) --> 29,
(0,12) --> 12,
(0,13) --> 23,
(0,14) --> 28,
(0,15) --> 27,
(0,16) --> 19,
(0,17) --> 8,
(0,18) --> 35,
(0,19) --> 23,
(0,20) --> 37,
(0,21) --> 27,
(0,22) --> 30,
(0,23) --> 31,
(0,24) --> 33,
(0,25) --> 33,
(0,26) --> 6,
(0,27) --> 16,
(0,28) --> 25,
(0,29) --> 18,
(0,30) --> 14,
(0,31) --> 37,
(0,32) --> 22,
(0,33) --> 18,
(0,34) --> 10,
(0,35) --> 18,
(0,36) --> 33,
(0,37) --> 32,
(0,38) --> 27,
(0,39) --> 22,
(0,40) --> 14,
(0,41) --> 36,
(0,42) --> 36,
(0,43) --> 32,
(0,44) --> 21,
(0,45) --> 14,
(0,46) --> 11,
(0,47) --> 27,
(0,48) --> 21,
(0,49) --> 28,
(1,0) --> 25,
(1,1) --> 0,
(1,2) --> 15,
(1,3) --> 23,
(1,4) --> 26,
(1,5) --> 33,
(1,6) --> 16,
(1,7) --> 40,
(1,8) --> 40,
(1,9) --> 37,
(1,10) --> 48,
(1,11) --> 54,
(1,12) --> 32,
(1,13) --> 42,
(1,14) --> 53,
(1,15) --> 40,
(1,16) --> 14,
(1,17) --> 25,
(1,18) --> 36,
(1,19) --> 48,
(1,20) --> 45,
(1,21) --> 24,
(1,22) --> 10,
(1,23) --> 13,
(1,24) --> 26,
(1,25) --> 42,
(1,26) --> 31,
(1,27) --> 35,
(1,28) --> 14,
(1,29) --> 30,
(1,30) --> 21,
(1,31) --> 55,
(1,32) --> 31,
(1,33) --> 8,
(1,34) --> 33,
(1,35) --> 43,
(1,36) --> 34,
(1,37) --> 39,
(1,38) --> 51,
(1,39) --> 39,
(1,40) --> 29,
(1,41) --> 11,
(1,42) --> 11,
(1,43) --> 7,
(1,44) --> 26,
(1,45) --> 29,
(1,46) --> 35,
(1,47) --> 29,
(1,48) --> 26,
(1,49) --> 19,
(2,0) --> 15,
(2,1) --> 15,
(2,2) --> 0,
(2,3) --> 24,
(2,4) --> 13,
(2,5) --> 20,
(2,6) --> 9,
(2,7) --> 28,
(2,8) --> 27,
(2,9) --> 34,
(2,10) --> 40,
(2,11) --> 43,
(2,12) --> 25,
(2,13) --> 28,
(2,14) --> 40,
(2,15) --> 26,
(2,16) --> 18,
(2,17) --> 18,
(2,18) --> 40,
(2,19) --> 34,
(2,20) --> 32,
(2,21) --> 15,
(2,22) --> 16,
(2,23) --> 25,
(2,24) --> 34,
(2,25) --> 42,
(2,26) --> 21,
(2,27) --> 21,
(2,28) --> 10,
(2,29) --> 16,
(2,30) --> 7,
(2,31) --> 50,
(2,32) --> 30,
(2,33) --> 10,
(2,34) --> 20,
(2,35) --> 31,
(2,36) --> 24,
(2,37) --> 26,
(2,38) --> 41,
(2,39) --> 35,
(2,40) --> 25,
(2,41) --> 26,
(2,42) --> 24,
(2,43) --> 21,
(2,44) --> 27,
(2,45) --> 15,
(2,46) --> 22,
(2,47) --> 18,
(2,48) --> 13,
(2,49) --> 27,
(3,0) --> 20,
(3,1) --> 23,
(3,2) --> 24,
(3,3) --> 0,
(3,4) --> 26,
(3,5) --> 42,
(3,6) --> 16,
(3,7) --> 29,
(3,8) --> 34,
(3,9) --> 15,
(3,10) --> 28,
(3,11) --> 39,
(3,12) --> 15,
(3,13) --> 42,
(3,14) --> 43,
(3,15) --> 46,
(3,16) --> 9,
(3,17) --> 12,
(3,18) --> 16,
(3,19) --> 41,
(3,20) --> 55,
(3,21) --> 39,
(3,22) --> 32,
(3,23) --> 20,
(3,24) --> 14,
(3,25) --> 19,
(3,26) --> 20,
(3,27) --> 36,
(3,28) --> 32,
(3,29) --> 36,
(3,30) --> 29,
(3,31) --> 33,
(3,32) --> 8,
(3,33) --> 17,
(3,34) --> 29,
(3,35) --> 34,
(3,36) --> 48,
(3,37) --> 49,
(3,38) --> 33,
(3,39) --> 17,
(3,40) --> 10,
(3,41) --> 29,
(3,42) --> 32,
(3,43) --> 26,
(3,44) --> 3,
(3,45) --> 33,
(3,46) --> 30,
(3,47) --> 42,
(3,48) --> 36,
(3,49) --> 11,
(4,0) --> 7,
(4,1) --> 26,
(4,2) --> 13,
(4,3) --> 26,
(4,4) --> 0,
(4,5) --> 18,
(4,6) --> 12,
(4,7) --> 16,
(4,8) --> 14,
(4,9) --> 31,
(4,10) --> 31,
(4,11) --> 32,
(4,12) --> 19,
(4,13) --> 17,
(4,14) --> 28,
(4,15) --> 20,
(4,16) --> 24,
(4,17) --> 15,
(4,18) --> 42,
(4,19) --> 21,
(4,20) --> 30,
(4,21) --> 22,
(4,22) --> 29,
(4,23) --> 35,
(4,24) --> 39,
(4,25) --> 40,
(4,26) --> 12,
(4,27) --> 10,
(4,28) --> 21,
(4,29) --> 11,
(4,30) --> 9,
(4,31) --> 43,
(4,32) --> 29,
(4,33) --> 20,
(4,34) --> 7,
(4,35) --> 18,
(4,36) --> 27,
(4,37) --> 25,
(4,38) --> 31,
(4,39) --> 29,
(4,40) --> 21,
(4,41) --> 38,
(4,42) --> 37,
(4,43) --> 33,
(4,44) --> 27,
(4,45) --> 7,
(4,46) --> 9,
(4,47) --> 21,
(4,48) --> 14,
(4,49) --> 33,
(5,0) --> 25,
(5,1) --> 33,
(5,2) --> 20,
(5,3) --> 42,
(5,4) --> 18,
(5,5) --> 0,
(5,6) --> 26,
(5,7) --> 30,
(5,8) --> 25,
(5,9) --> 49,
(5,10) --> 48,
(5,11) --> 45,
(5,12) --> 37,
(5,13) --> 17,
(5,14) --> 38,
(5,15) --> 8,
(5,16) --> 38,
(5,17) --> 33,
(5,18) --> 58,
(5,19) --> 29,
(5,20) --> 13,
(5,21) --> 13,
(5,22) --> 30,
(5,23) --> 45,
(5,24) --> 53,
(5,25) --> 58,
(5,26) --> 30,
(5,27) --> 14,
(5,28) --> 20,
(5,29) --> 7,
(5,30) --> 13,
(5,31) --> 61,
(5,32) --> 47,
(5,33) --> 30,
(5,34) --> 21,
(5,35) --> 30,
(5,36) --> 10,
(5,37) --> 7,
(5,38) --> 47,
(5,39) --> 47,
(5,40) --> 39,
(5,41) --> 43,
(5,42) --> 40,
(5,43) --> 39,
(5,44) --> 44,
(5,45) --> 11,
(5,46) --> 22,
(5,47) --> 7,
(5,48) --> 7,
(5,49) --> 47,
(6,0) --> 9,
(6,1) --> 16,
(6,2) --> 9,
(6,3) --> 16,
(6,4) --> 12,
(6,5) --> 26,
(6,6) --> 0,
(6,7) --> 23,
(6,8) --> 25,
(6,9) --> 26,
(6,10) --> 33,
(6,11) --> 38,
(6,12) --> 17,
(6,13) --> 29,
(6,14) --> 37,
(6,15) --> 31,
(6,16) --> 12,
(6,17) --> 10,
(6,18) --> 33,
(6,19) --> 32,
(6,20) --> 39,
(6,21) --> 24,
(6,22) --> 22,
(6,23) --> 23,
(6,24) --> 28,
(6,25) --> 34,
(6,26) --> 14,
(6,27) --> 22,
(6,28) --> 18,
(6,29) --> 21,
(6,30) --> 13,
(6,31) --> 42,
(6,32) --> 22,
(6,33) --> 9,
(6,34) --> 18,
(6,35) --> 27,
(6,36) --> 32,
(6,37) --> 33,
(6,38) --> 35,
(6,39) --> 26,
(6,40) --> 16,
(6,41) --> 27,
(6,42) --> 27,
(6,43) --> 23,
(6,44) --> 18,
(6,45) --> 17,
(6,46) --> 20,
(6,47) --> 25,
(6,48) --> 20,
(6,49) --> 21,
(7,0) --> 14,
(7,1) --> 40,
(7,2) --> 28,
(7,3) --> 29,
(7,4) --> 16,
(7,5) --> 30,
(7,6) --> 23,
(7,7) --> 0,
(7,8) --> 7,
(7,9) --> 26,
(7,10) --> 19,
(7,11) --> 16,
(7,12) --> 15,
(7,13) --> 19,
(7,14) --> 14,
(7,15) --> 29,
(7,16) --> 32,
(7,17) --> 18,
(7,18) --> 41,
(7,19) --> 12,
(7,20) --> 39,
(7,21) --> 37,
(7,22) --> 44,
(7,23) --> 45,
(7,24) --> 44,
(7,25) --> 36,
(7,26) --> 10,
(7,27) --> 17,
(7,28) --> 37,
(7,29) --> 24,
(7,30) --> 25,
(7,31) --> 32,
(7,32) --> 28,
(7,33) --> 32,
(7,34) --> 10,
(7,35) --> 5,
(7,36) --> 40,
(7,37) --> 36,
(7,38) --> 16,
(7,39) --> 22,
(7,40) --> 20,
(7,41) --> 50,
(7,42) --> 50,
(7,43) --> 46,
(7,44) --> 29,
(7,45) --> 20,
(7,46) --> 8,
(7,47) --> 35,
(7,48) --> 29,
(7,49) --> 40,
(8,0) --> 16,
(8,1) --> 40,
(8,2) --> 27,
(8,3) --> 34,
(8,4) --> 14,
(8,5) --> 25,
(8,6) --> 25,
(8,7) --> 7,
(8,8) --> 0,
(8,9) --> 32,
(8,10) --> 26,
(8,11) --> 20,
(8,12) --> 21,
(8,13) --> 12,
(8,14) --> 14,
(8,15) --> 22,
(8,16) --> 35,
(8,17) --> 22,
(8,18) --> 47,
(8,19) --> 8,
(8,20) --> 33,
(8,21) --> 34,
(8,22) --> 43,
(8,23) --> 47,
(8,24) --> 48,
(8,25) --> 42,
(8,26) --> 14,
(8,27) --> 11,
(8,28) --> 35,
(8,29) --> 19,
(8,30) --> 22,
(8,31) --> 39,
(8,32) --> 34,
(8,33) --> 33,
(8,34) --> 7,
(8,35) --> 5,
(8,36) --> 35,
(8,37) --> 30,
(8,38) --> 22,
(8,39) --> 29,
(8,40) --> 25,
(8,41) --> 51,
(8,42) --> 51,
(8,43) --> 47,
(8,44) --> 34,
(8,45) --> 16,
(8,46) --> 5,
(8,47) --> 30,
(8,48) --> 25,
(8,49) --> 44,
(9,0) --> 24,
(9,1) --> 37,
(9,2) --> 34,
(9,3) --> 15,
(9,4) --> 31,
(9,5) --> 49,
(9,6) --> 26,
(9,7) --> 26,
(9,8) --> 32,
(9,9) --> 0,
(9,10) --> 16,
(9,11) --> 30,
(9,12) --> 12,
(9,13) --> 43,
(9,14) --> 36,
(9,15) --> 50,
(9,16) --> 24,
(9,17) --> 17,
(9,18) --> 17,
(9,19) --> 38,
(9,20) --> 60,
(9,21) --> 49,
(9,22) --> 46,
(9,23) --> 34,
(9,24) --> 25,
(9,25) --> 10,
(9,26) --> 20,
(9,27) --> 38,
(9,28) --> 44,
(9,29) --> 42,
(9,30) --> 37,
(9,31) --> 18,
(9,32) --> 7,
(9,33) --> 30,
(9,34) --> 31,
(9,35) --> 30,
(9,36) --> 56,
(9,37) --> 56,
(9,38) --> 22,
(9,39) --> 4,
(9,40) --> 10,
(9,41) --> 44,
(9,42) --> 46,
(9,43) --> 41,
(9,44) --> 12,
(9,45) --> 38,
(9,46) --> 30,
(9,47) --> 50,
(9,48) --> 44,
(9,49) --> 25,
(10,0) --> 26,
(10,1) --> 48,
(10,2) --> 40,
(10,3) --> 28,
(10,4) --> 31,
(10,5) --> 48,
(10,6) --> 33,
(10,7) --> 19,
(10,8) --> 26,
(10,9) --> 16,
(10,10) --> 0,
(10,11) --> 15,
(10,12) --> 16,
(10,13) --> 38,
(10,14) --> 24,
(10,15) --> 47,
(10,16) --> 36,
(10,17) --> 23,
(10,18) --> 33,
(10,19) --> 28,
(10,20) --> 58,
(10,21) --> 53,
(10,22) --> 55,
(10,23) --> 48,
(10,24) --> 40,
(10,25) --> 23,
(10,26) --> 20,
(10,27) --> 35,
(10,28) --> 50,
(10,29) --> 42,
(10,30) --> 40,
(10,31) --> 13,
(10,32) --> 22,
(10,33) --> 40,
(10,34) --> 28,
(10,35) --> 22,
(10,36) --> 58,
(10,37) --> 55,
(10,38) --> 7,
(10,39) --> 12,
(10,40) --> 19,
(10,41) --> 56,
(10,42) --> 58,
(10,43) --> 53,
(10,44) --> 26,
(10,45) --> 37,
(10,46) --> 26,
(10,47) --> 52,
(10,48) --> 46,
(10,49) --> 40,
(11,0) --> 29,
(11,1) --> 54,
(11,2) --> 43,
(11,3) --> 39,
(11,4) --> 32,
(11,5) --> 45,
(11,6) --> 38,
(11,7) --> 16,
(11,8) --> 20,
(11,9) --> 30,
(11,10) --> 15,
(11,11) --> 0,
(11,12) --> 24,
(11,13) --> 31,
(11,14) --> 11,
(11,15) --> 42,
(11,16) --> 45,
(11,17) --> 30,
(11,18) --> 47,
(11,19) --> 18,
(11,20) --> 52,
(11,21) --> 53,
(11,22) --> 60,
(11,23) --> 57,
(11,24) --> 53,
(11,25) --> 38,
(11,26) --> 24,
(11,27) --> 31,
(11,28) --> 53,
(11,29) --> 39,
(11,30) --> 41,
(11,31) --> 26,
(11,32) --> 35,
(11,33) --> 46,
(11,34) --> 25,
(11,35) --> 15,
(11,36) --> 55,
(11,37) --> 50,
(11,38) --> 8,
(11,39) --> 25,
(11,40) --> 29,
(11,41) --> 64,
(11,42) --> 65,
(11,43) --> 60,
(11,44) --> 38,
(11,45) --> 35,
(11,46) --> 23,
(11,47) --> 50,
(11,48) --> 45,
(11,49) --> 51,
(12,0) --> 12,
(12,1) --> 32,
(12,2) --> 25,
(12,3) --> 15,
(12,4) --> 19,
(12,5) --> 37,
(12,6) --> 17,
(12,7) --> 15,
(12,8) --> 21,
(12,9) --> 12,
(12,10) --> 16,
(12,11) --> 24,
(12,12) --> 0,
(12,13) --> 31,
(12,14) --> 28,
(12,15) --> 38,
(12,16) --> 21,
(12,17) --> 7,
(12,18) --> 26,
(12,19) --> 27,
(12,20) --> 48,
(12,21) --> 39,
(12,22) --> 39,
(12,23) --> 33,
(12,24) --> 29,
(12,25) --> 22,
(12,26) --> 8,
(12,27) --> 26,
(12,28) --> 35,
(12,29) --> 30,
(12,30) --> 26,
(12,31) --> 25,
(12,32) --> 13,
(12,33) --> 24,
(12,34) --> 19,
(12,35) --> 20,
(12,36) --> 45,
(12,37) --> 44,
(12,38) --> 19,
(12,39) --> 10,
(12,40) --> 5,
(12,41) --> 41,
(12,42) --> 42,
(12,43) --> 37,
(12,44) --> 14,
(12,45) --> 26,
(12,46) --> 18,
(12,47) --> 39,
(12,48) --> 33,
(12,49) --> 26,
(13,0) --> 23,
(13,1) --> 42,
(13,2) --> 28,
(13,3) --> 42,
(13,4) --> 17,
(13,5) --> 17,
(13,6) --> 29,
(13,7) --> 19,
(13,8) --> 12,
(13,9) --> 43,
(13,10) --> 38,
(13,11) --> 31,
(13,12) --> 31,
(13,13) --> 0,
(13,14) --> 22,
(13,15) --> 11,
(13,16) --> 41,
(13,17) --> 30,
(13,18) --> 57,
(13,19) --> 13,
(13,20) --> 21,
(13,21) --> 28,
(13,22) --> 42,
(13,23) --> 51,
(13,24) --> 56,
(13,25) --> 54,
(13,26) --> 24,
(13,27) --> 7,
(13,28) --> 33,
(13,29) --> 13,
(13,30) --> 21,
(13,31) --> 51,
(13,32) --> 44,
(13,33) --> 36,
(13,34) --> 13,
(13,35) --> 17,
(13,36) --> 26,
(13,37) --> 20,
(13,38) --> 34,
(13,39) --> 41,
(13,40) --> 35,
(13,41) --> 53,
(13,42) --> 51,
(13,43) --> 49,
(13,44) --> 43,
(13,45) --> 13,
(13,46) --> 13,
(13,47) --> 23,
(13,48) --> 20,
(13,49) --> 50,
(14,0) --> 28,
(14,1) --> 53,
(14,2) --> 40,
(14,3) --> 43,
(14,4) --> 28,
(14,5) --> 38,
(14,6) --> 37,
(14,7) --> 14,
(14,8) --> 14,
(14,9) --> 36,
(14,10) --> 24,
(14,11) --> 11,
(14,12) --> 28,
(14,13) --> 22,
(14,14) --> 0,
(14,15) --> 33,
(14,16) --> 46,
(14,17) --> 32,
(14,18) --> 53,
(14,19) --> 9,
(14,20) --> 43,
(14,21) --> 48,
(14,22) --> 57,
(14,23) --> 59,
(14,24) --> 57,
(14,25) --> 46,
(14,26) --> 24,
(14,27) --> 24,
(14,28) --> 49,
(14,29) --> 33,
(14,30) --> 36,
(14,31) --> 36,
(14,32) --> 40,
(14,33) --> 46,
(14,34) --> 21,
(14,35) --> 10,
(14,36) --> 48,
(14,37) --> 42,
(14,38) --> 17,
(14,39) --> 32,
(14,40) --> 33,
(14,41) --> 64,
(14,42) --> 64,
(14,43) --> 60,
(14,44) --> 42,
(14,45) --> 30,
(14,46) --> 19,
(14,47) --> 44,
(14,48) --> 39,
(14,49) --> 53,
(15,0) --> 27,
(15,1) --> 40,
(15,2) --> 26,
(15,3) --> 46,
(15,4) --> 20,
(15,5) --> 8,
(15,6) --> 31,
(15,7) --> 29,
(15,8) --> 22,
(15,9) --> 50,
(15,10) --> 47,
(15,11) --> 42,
(15,12) --> 38,
(15,13) --> 11,
(15,14) --> 33,
(15,15) --> 0,
(15,16) --> 43,
(15,17) --> 35,
(15,18) --> 62,
(15,19) --> 24,
(15,20) --> 11,
(15,21) --> 21,
(15,22) --> 38,
(15,23) --> 51,
(15,24) --> 58,
(15,25) --> 60,
(15,26) --> 30,
(15,27) --> 12,
(15,28) --> 28,
(15,29) --> 10,
(15,30) --> 19,
(15,31) --> 61,
(15,32) --> 49,
(15,33) --> 36,
(15,34) --> 20,
(15,35) --> 27,
(15,36) --> 16,
(15,37) --> 9,
(15,38) --> 45,
(15,39) --> 48,
(15,40) --> 41,
(15,41) --> 50,
(15,42) --> 48,
(15,43) --> 46,
(15,44) --> 48,
(15,45) --> 13,
(15,46) --> 21,
(15,47) --> 15,
(15,48) --> 14,
(15,49) --> 52,
(16,0) --> 19,
(16,1) --> 14,
(16,2) --> 18,
(16,3) --> 9,
(16,4) --> 24,
(16,5) --> 38,
(16,6) --> 12,
(16,7) --> 32,
(16,8) --> 35,
(16,9) --> 24,
(16,10) --> 36,
(16,11) --> 45,
(16,12) --> 21,
(16,13) --> 41,
(16,14) --> 46,
(16,15) --> 43,
(16,16) --> 0,
(16,17) --> 14,
(16,18) --> 23,
(16,19) --> 43,
(16,20) --> 50,
(16,21) --> 33,
(16,22) --> 24,
(16,23) --> 13,
(16,24) --> 16,
(16,25) --> 28,
(16,26) --> 22,
(16,27) --> 34,
(16,28) --> 24,
(16,29) --> 33,
(16,30) --> 24,
(16,31) --> 41,
(16,32) --> 17,
(16,33) --> 9,
(16,34) --> 29,
(16,35) --> 37,
(16,36) --> 42,
(16,37) --> 44,
(16,38) --> 40,
(16,39) --> 26,
(16,40) --> 17,
(16,41) --> 21,
(16,42) --> 23,
(16,43) --> 18,
(16,44) --> 12,
(16,45) --> 30,
(16,46) --> 31,
(16,47) --> 36,
(16,48) --> 31,
(16,49) --> 9,
(17,0) --> 8,
(17,1) --> 25,
(17,2) --> 18,
(17,3) --> 12,
(17,4) --> 15,
(17,5) --> 33,
(17,6) --> 10,
(17,7) --> 18,
(17,8) --> 22,
(17,9) --> 17,
(17,10) --> 23,
(17,11) --> 30,
(17,12) --> 7,
(17,13) --> 30,
(17,14) --> 32,
(17,15) --> 35,
(17,16) --> 14,
(17,17) --> 0,
(17,18) --> 27,
(17,19) --> 29,
(17,20) --> 45,
(17,21) --> 33,
(17,22) --> 32,
(17,23) --> 27,
(17,24) --> 26,
(17,25) --> 26,
(17,26) --> 8,
(17,27) --> 24,
(17,28) --> 28,
(17,29) --> 26,
(17,30) --> 21,
(17,31) --> 32,
(17,32) --> 14,
(17,33) --> 17,
(17,34) --> 17,
(17,35) --> 23,
(17,36) --> 40,
(17,37) --> 40,
(17,38) --> 26,
(17,39) --> 16,
(17,40) --> 7,
(17,41) --> 34,
(17,42) --> 35,
(17,43) --> 30,
(17,44) --> 13,
(17,45) --> 22,
(17,46) --> 18,
(17,47) --> 34,
(17,48) --> 27,
(17,49) --> 22,
(18,0) --> 35,
(18,1) --> 36,
(18,2) --> 40,
(18,3) --> 16,
(18,4) --> 42,
(18,5) --> 58,
(18,6) --> 33,
(18,7) --> 41,
(18,8) --> 47,
(18,9) --> 17,
(18,10) --> 33,
(18,11) --> 47,
(18,12) --> 26,
(18,13) --> 57,
(18,14) --> 53,
(18,15) --> 62,
(18,16) --> 23,
(18,17) --> 27,
(18,18) --> 0,
(18,19) --> 54,
(18,20) --> 71,
(18,21) --> 55,
(18,22) --> 46,
(18,23) --> 28,
(18,24) --> 13,
(18,25) --> 11,
(18,26) --> 34,
(18,27) --> 51,
(18,28) --> 48,
(18,29) --> 52,
(18,30) --> 45,
(18,31) --> 30,
(18,32) --> 13,
(18,33) --> 32,
(18,34) --> 44,
(18,35) --> 46,
(18,36) --> 64,
(18,37) --> 65,
(18,38) --> 39,
(18,39) --> 21,
(18,40) --> 22,
(18,41) --> 39,
(18,42) --> 42,
(18,43) --> 38,
(18,44) --> 14,
(18,45) --> 49,
(18,46) --> 44,
(18,47) --> 58,
(18,48) --> 52,
(18,49) --> 18,
(19,0) --> 23,
(19,1) --> 48,
(19,2) --> 34,
(19,3) --> 41,
(19,4) --> 21,
(19,5) --> 29,
(19,6) --> 32,
(19,7) --> 12,
(19,8) --> 8,
(19,9) --> 38,
(19,10) --> 28,
(19,11) --> 18,
(19,12) --> 27,
(19,13) --> 13,
(19,14) --> 9,
(19,15) --> 24,
(19,16) --> 43,
(19,17) --> 29,
(19,18) --> 54,
(19,19) --> 0,
(19,20) --> 34,
(19,21) --> 39,
(19,22) --> 50,
(19,23) --> 55,
(19,24) --> 55,
(19,25) --> 48,
(19,26) --> 21,
(19,27) --> 16,
(19,28) --> 42,
(19,29) --> 24,
(19,30) --> 29,
(19,31) --> 42,
(19,32) --> 40,
(19,33) --> 41,
(19,34) --> 14,
(19,35) --> 7,
(19,36) --> 39,
(19,37) --> 33,
(19,38) --> 23,
(19,39) --> 34,
(19,40) --> 32,
(19,41) --> 59,
(19,42) --> 58,
(19,43) --> 54,
(19,44) --> 41,
(19,45) --> 22,
(19,46) --> 13,
(19,47) --> 35,
(19,48) --> 30,
(19,49) --> 51,
(20,0) --> 37,
(20,1) --> 45,
(20,2) --> 32,
(20,3) --> 55,
(20,4) --> 30,
(20,5) --> 13,
(20,6) --> 39,
(20,7) --> 39,
(20,8) --> 33,
(20,9) --> 60,
(20,10) --> 58,
(20,11) --> 52,
(20,12) --> 48,
(20,13) --> 21,
(20,14) --> 43,
(20,15) --> 11,
(20,16) --> 50,
(20,17) --> 45,
(20,18) --> 71,
(20,19) --> 34,
(20,20) --> 0,
(20,21) --> 22,
(20,22) --> 40,
(20,23) --> 57,
(20,24) --> 66,
(20,25) --> 70,
(20,26) --> 41,
(20,27) --> 23,
(20,28) --> 31,
(20,29) --> 18,
(20,30) --> 26,
(20,31) --> 71,
(20,32) --> 59,
(20,33) --> 43,
(20,34) --> 31,
(20,35) --> 38,
(20,36) --> 13,
(20,37) --> 6,
(20,38) --> 55,
(20,39) --> 58,
(20,40) --> 51,
(20,41) --> 54,
(20,42) --> 51,
(20,43) --> 50,
(20,44) --> 56,
(20,45) --> 23,
(20,46) --> 32,
(20,47) --> 16,
(20,48) --> 19,
(20,49) --> 59,
(21,0) --> 27,
(21,1) --> 24,
(21,2) --> 15,
(21,3) --> 39,
(21,4) --> 22,
(21,5) --> 13,
(21,6) --> 24,
(21,7) --> 37,
(21,8) --> 34,
(21,9) --> 49,
(21,10) --> 53,
(21,11) --> 53,
(21,12) --> 39,
(21,13) --> 28,
(21,14) --> 48,
(21,15) --> 21,
(21,16) --> 33,
(21,17) --> 33,
(21,18) --> 55,
(21,19) --> 39,
(21,20) --> 22,
(21,21) --> 0,
(21,22) --> 18,
(21,23) --> 36,
(21,24) --> 48,
(21,25) --> 58,
(21,26) --> 33,
(21,27) --> 24,
(21,28) --> 9,
(21,29) --> 15,
(21,30) --> 13,
(21,31) --> 64,
(21,32) --> 46,
(21,33) --> 24,
(21,34) --> 28,
(21,35) --> 39,
(21,36) --> 10,
(21,37) --> 16,
(21,38) --> 53,
(21,39) --> 49,
(21,40) --> 40,
(21,41) --> 32,
(21,42) --> 29,
(21,43) --> 29,
(21,44) --> 42,
(21,45) --> 18,
(21,46) --> 30,
(21,47) --> 6,
(21,48) --> 9,
(21,49) --> 41,
(22,0) --> 30,
(22,1) --> 10,
(22,2) --> 16,
(22,3) --> 32,
(22,4) --> 29,
(22,5) --> 30,
(22,6) --> 22,
(22,7) --> 44,
(22,8) --> 43,
(22,9) --> 46,
(22,10) --> 55,
(22,11) --> 60,
(22,12) --> 39,
(22,13) --> 42,
(22,14) --> 57,
(22,15) --> 38,
(22,16) --> 24,
(22,17) --> 32,
(22,18) --> 46,
(22,19) --> 50,
(22,20) --> 40,
(22,21) --> 18,
(22,22) --> 0,
(22,23) --> 21,
(22,24) --> 36,
(22,25) --> 52,
(22,26) --> 36,
(22,27) --> 36,
(22,28) --> 9,
(22,29) --> 29,
(22,30) --> 21,
(22,31) --> 63,
(22,32) --> 40,
(22,33) --> 16,
(22,34) --> 36,
(22,35) --> 47,
(22,36) --> 28,
(22,37) --> 34,
(22,38) --> 57,
(22,39) --> 47,
(22,40) --> 37,
(22,41) --> 15,
(22,42) --> 11,
(22,43) --> 12,
(22,44) --> 35,
(22,45) --> 29,
(22,46) --> 38,
(22,47) --> 24,
(22,48) --> 23,
(22,49) --> 29,
(23,0) --> 31,
(23,1) --> 13,
(23,2) --> 25,
(23,3) --> 20,
(23,4) --> 35,
(23,5) --> 45,
(23,6) --> 23,
(23,7) --> 45,
(23,8) --> 47,
(23,9) --> 34,
(23,10) --> 48,
(23,11) --> 57,
(23,12) --> 33,
(23,13) --> 51,
(23,14) --> 59,
(23,15) --> 51,
(23,16) --> 13,
(23,17) --> 27,
(23,18) --> 28,
(23,19) --> 55,
(23,20) --> 57,
(23,21) --> 36,
(23,22) --> 21,
(23,23) --> 0,
(23,24) --> 16,
(23,25) --> 36,
(23,26) --> 35,
(23,27) --> 44,
(23,28) --> 27,
(23,29) --> 41,
(23,30) --> 32,
(23,31) --> 52,
(23,32) --> 27,
(23,33) --> 15,
(23,34) --> 41,
(23,35) --> 49,
(23,36) --> 47,
(23,37) --> 51,
(23,38) --> 52,
(23,39) --> 37,
(23,40) --> 29,
(23,41) --> 11,
(23,42) --> 15,
(23,43) --> 10,
(23,44) --> 22,
(23,45) --> 39,
(23,46) --> 42,
(23,47) --> 41,
(23,48) --> 38,
(23,49) --> 10,
(24,0) --> 33,
(24,1) --> 26,
(24,2) --> 34,
(24,3) --> 14,
(24,4) --> 39,
(24,5) --> 53,
(24,6) --> 28,
(24,7) --> 44,
(24,8) --> 48,
(24,9) --> 25,
(24,10) --> 40,
(24,11) --> 53,
(24,12) --> 29,
(24,13) --> 56,
(24,14) --> 57,
(24,15) --> 58,
(24,16) --> 16,
(24,17) --> 26,
(24,18) --> 13,
(24,19) --> 55,
(24,20) --> 66,
(24,21) --> 48,
(24,22) --> 36,
(24,23) --> 16,
(24,24) --> 0,
(24,25) --> 23,
(24,26) --> 34,
(24,27) --> 49,
(24,28) --> 39,
(24,29) --> 48,
(24,30) --> 40,
(24,31) --> 41,
(24,32) --> 18,
(24,33) --> 24,
(24,34) --> 43,
(24,35) --> 49,
(24,36) --> 57,
(24,37) --> 60,
(24,38) --> 46,
(24,39) --> 29,
(24,40) --> 24,
(24,41) --> 26,
(24,42) --> 30,
(24,43) --> 26,
(24,44) --> 15,
(24,45) --> 45,
(24,46) --> 44,
(24,47) --> 51,
(24,48) --> 47,
(24,49) --> 7,
(25,0) --> 33,
(25,1) --> 42,
(25,2) --> 42,
(25,3) --> 19,
(25,4) --> 40,
(25,5) --> 58,
(25,6) --> 34,
(25,7) --> 36,
(25,8) --> 42,
(25,9) --> 10,
(25,10) --> 23,
(25,11) --> 38,
(25,12) --> 22,
(25,13) --> 54,
(25,14) --> 46,
(25,15) --> 60,
(25,16) --> 28,
(25,17) --> 26,
(25,18) --> 11,
(25,19) --> 48,
(25,20) --> 70,
(25,21) --> 58,
(25,22) --> 52,
(25,23) --> 36,
(25,24) --> 23,
(25,25) --> 0,
(25,26) --> 30,
(25,27) --> 48,
(25,28) --> 51,
(25,29) --> 52,
(25,30) --> 46,
(25,31) --> 18,
(25,32) --> 12,
(25,33) --> 36,
(25,34) --> 41,
(25,35) --> 40,
(25,36) --> 65,
(25,37) --> 65,
(25,38) --> 30,
(25,39) --> 14,
(25,40) --> 19,
(25,41) --> 47,
(25,42) --> 50,
(25,43) --> 45,
(25,44) --> 16,
(25,45) --> 47,
(25,46) --> 40,
(25,47) --> 59,
(25,48) --> 53,
(25,49) --> 26,
(26,0) --> 6,
(26,1) --> 31,
(26,2) --> 21,
(26,3) --> 20,
(26,4) --> 12,
(26,5) --> 30,
(26,6) --> 14,
(26,7) --> 10,
(26,8) --> 14,
(26,9) --> 20,
(26,10) --> 20,
(26,11) --> 24,
(26,12) --> 8,
(26,13) --> 24,
(26,14) --> 24,
(26,15) --> 30,
(26,16) --> 22,
(26,17) --> 8,
(26,18) --> 34,
(26,19) --> 21,
(26,20) --> 41,
(26,21) --> 33,
(26,22) --> 36,
(26,23) --> 35,
(26,24) --> 34,
(26,25) --> 30,
(26,26) --> 0,
(26,27) --> 18,
(26,28) --> 31,
(26,29) --> 23,
(26,30) --> 20,
(26,31) --> 32,
(26,32) --> 20,
(26,33) --> 23,
(26,34) --> 11,
(26,35) --> 15,
(26,36) --> 38,
(26,37) --> 36,
(26,38) --> 21,
(26,39) --> 18,
(26,40) --> 12,
(26,41) --> 41,
(26,42) --> 41,
(26,43) --> 37,
(26,44) --> 20,
(26,45) --> 18,
(26,46) --> 11,
(26,47) --> 32,
(26,48) --> 26,
(26,49) --> 30,
(27,0) --> 16,
(27,1) --> 35,
(27,2) --> 21,
(27,3) --> 36,
(27,4) --> 10,
(27,5) --> 14,
(27,6) --> 22,
(27,7) --> 17,
(27,8) --> 11,
(27,9) --> 38,
(27,10) --> 35,
(27,11) --> 31,
(27,12) --> 26,
(27,13) --> 7,
(27,14) --> 24,
(27,15) --> 12,
(27,16) --> 34,
(27,17) --> 24,
(27,18) --> 51,
(27,19) --> 16,
(27,20) --> 23,
(27,21) --> 24,
(27,22) --> 36,
(27,23) --> 44,
(27,24) --> 49,
(27,25) --> 48,
(27,26) --> 18,
(27,27) --> 0,
(27,28) --> 27,
(27,29) --> 9,
(27,30) --> 14,
(27,31) --> 48,
(27,32) --> 38,
(27,33) --> 29,
(27,34) --> 8,
(27,35) --> 16,
(27,36) --> 24,
(27,37) --> 20,
(27,38) --> 33,
(27,39) --> 36,
(27,40) --> 30,
(27,41) --> 46,
(27,42) --> 45,
(27,43) --> 42,
(27,44) --> 37,
(27,45) --> 6,
(27,46) --> 9,
(27,47) --> 20,
(27,48) --> 15,
(27,49) --> 43,
(28,0) --> 25,
(28,1) --> 14,
(28,2) --> 10,
(28,3) --> 32,
(28,4) --> 21,
(28,5) --> 20,
(28,6) --> 18,
(28,7) --> 37,
(28,8) --> 35,
(28,9) --> 44,
(28,10) --> 50,
(28,11) --> 53,
(28,12) --> 35,
(28,13) --> 33,
(28,14) --> 49,
(28,15) --> 28,
(28,16) --> 24,
(28,17) --> 28,
(28,18) --> 48,
(28,19) --> 42,
(28,20) --> 31,
(28,21) --> 9,
(28,22) --> 9,
(28,23) --> 27,
(28,24) --> 39,
(28,25) --> 51,
(28,26) --> 31,
(28,27) --> 27,
(28,28) --> 0,
(28,29) --> 20,
(28,30) --> 13,
(28,31) --> 60,
(28,32) --> 39,
(28,33) --> 16,
(28,34) --> 28,
(28,35) --> 39,
(28,36) --> 20,
(28,37) --> 25,
(28,38) --> 51,
(28,39) --> 44,
(28,40) --> 34,
(28,41) --> 23,
(28,42) --> 20,
(28,43) --> 19,
(28,44) --> 35,
(28,45) --> 21,
(28,46) --> 31,
(28,47) --> 15,
(28,48) --> 14,
(28,49) --> 32,
(29,0) --> 18,
(29,1) --> 30,
(29,2) --> 16,
(29,3) --> 36,
(29,4) --> 11,
(29,5) --> 7,
(29,6) --> 21,
(29,7) --> 24,
(29,8) --> 19,
(29,9) --> 42,
(29,10) --> 42,
(29,11) --> 39,
(29,12) --> 30,
(29,13) --> 13,
(29,14) --> 33,
(29,15) --> 10,
(29,16) --> 33,
(29,17) --> 26,
(29,18) --> 52,
(29,19) --> 24,
(29,20) --> 18,
(29,21) --> 15,
(29,22) --> 29,
(29,23) --> 41,
(29,24) --> 48,
(29,25) --> 52,
(29,26) --> 23,
(29,27) --> 9,
(29,28) --> 20,
(29,29) --> 0,
(29,30) --> 9,
(29,31) --> 54,
(29,32) --> 40,
(29,33) --> 26,
(29,34) --> 14,
(29,35) --> 24,
(29,36) --> 16,
(29,37) --> 14,
(29,38) --> 40,
(29,39) --> 40,
(29,40) --> 33,
(29,41) --> 41,
(29,42) --> 39,
(29,43) --> 37,
(29,44) --> 38,
(29,45) --> 4,
(29,46) --> 16,
(29,47) --> 11,
(29,48) --> 6,
(29,49) --> 42,
(30,0) --> 14,
(30,1) --> 21,
(30,2) --> 7,
(30,3) --> 29,
(30,4) --> 9,
(30,5) --> 13,
(30,6) --> 13,
(30,7) --> 25,
(30,8) --> 22,
(30,9) --> 37,
(30,10) --> 40,
(30,11) --> 41,
(30,12) --> 26,
(30,13) --> 21,
(30,14) --> 36,
(30,15) --> 19,
(30,16) --> 24,
(30,17) --> 21,
(30,18) --> 45,
(30,19) --> 29,
(30,20) --> 26,
(30,21) --> 13,
(30,22) --> 21,
(30,23) --> 32,
(30,24) --> 40,
(30,25) --> 46,
(30,26) --> 20,
(30,27) --> 14,
(30,28) --> 13,
(30,29) --> 9,
(30,30) --> 0,
(30,31) --> 51,
(30,32) --> 34,
(30,33) --> 17,
(30,34) --> 16,
(30,35) --> 27,
(30,36) --> 19,
(30,37) --> 20,
(30,38) --> 40,
(30,39) --> 36,
(30,40) --> 27,
(30,41) --> 32,
(30,42) --> 30,
(30,43) --> 28,
(30,44) --> 31,
(30,45) --> 8,
(30,46) --> 18,
(30,47) --> 13,
(30,48) --> 7,
(30,49) --> 33,
(31,0) --> 37,
(31,1) --> 55,
(31,2) --> 50,
(31,3) --> 33,
(31,4) --> 43,
(31,5) --> 61,
(31,6) --> 42,
(31,7) --> 32,
(31,8) --> 39,
(31,9) --> 18,
(31,10) --> 13,
(31,11) --> 26,
(31,12) --> 25,
(31,13) --> 51,
(31,14) --> 36,
(31,15) --> 61,
(31,16) --> 41,
(31,17) --> 32,
(31,18) --> 30,
(31,19) --> 42,
(31,20) --> 71,
(31,21) --> 64,
(31,22) --> 63,
(31,23) --> 52,
(31,24) --> 41,
(31,25) --> 18,
(31,26) --> 32,
(31,27) --> 48,
(31,28) --> 60,
(31,29) --> 54,
(31,30) --> 51,
(31,31) --> 0,
(31,32) --> 25,
(31,33) --> 47,
(31,34) --> 41,
(31,35) --> 35,
(31,36) --> 70,
(31,37) --> 68,
(31,38) --> 19,
(31,39) --> 16,
(31,40) --> 26,
(31,41) --> 62,
(31,42) --> 64,
(31,43) --> 59,
(31,44) --> 30,
(31,45) --> 50,
(31,46) --> 39,
(31,47) --> 64,
(31,48) --> 58,
(31,49) --> 42,
(32,0) --> 22,
(32,1) --> 31,
(32,2) --> 30,
(32,3) --> 8,
(32,4) --> 29,
(32,5) --> 47,
(32,6) --> 22,
(32,7) --> 28,
(32,8) --> 34,
(32,9) --> 7,
(32,10) --> 22,
(32,11) --> 35,
(32,12) --> 13,
(32,13) --> 44,
(32,14) --> 40,
(32,15) --> 49,
(32,16) --> 17,
(32,17) --> 14,
(32,18) --> 13,
(32,19) --> 40,
(32,20) --> 59,
(32,21) --> 46,
(32,22) --> 40,
(32,23) --> 27,
(32,24) --> 18,
(32,25) --> 12,
(32,26) --> 20,
(32,27) --> 38,
(32,28) --> 39,
(32,29) --> 40,
(32,30) --> 34,
(32,31) --> 25,
(32,32) --> 0,
(32,33) --> 24,
(32,34) --> 31,
(32,35) --> 33,
(32,36) --> 54,
(32,37) --> 54,
(32,38) --> 28,
(32,39) --> 11,
(32,40) --> 9,
(32,41) --> 37,
(32,42) --> 40,
(32,43) --> 35,
(32,44) --> 5,
(32,45) --> 36,
(32,46) --> 31,
(32,47) --> 47,
(32,48) --> 41,
(32,49) --> 18,
(33,0) --> 18,
(33,1) --> 8,
(33,2) --> 10,
(33,3) --> 17,
(33,4) --> 20,
(33,5) --> 30,
(33,6) --> 9,
(33,7) --> 32,
(33,8) --> 33,
(33,9) --> 30,
(33,10) --> 40,
(33,11) --> 46,
(33,12) --> 24,
(33,13) --> 36,
(33,14) --> 46,
(33,15) --> 36,
(33,16) --> 9,
(33,17) --> 17,
(33,18) --> 32,
(33,19) --> 41,
(33,20) --> 43,
(33,21) --> 24,
(33,22) --> 16,
(33,23) --> 15,
(33,24) --> 24,
(33,25) --> 36,
(33,26) --> 23,
(33,27) --> 29,
(33,28) --> 16,
(33,29) --> 26,
(33,30) --> 17,
(33,31) --> 47,
(33,32) --> 24,
(33,33) --> 0,
(33,34) --> 26,
(33,35) --> 36,
(33,36) --> 34,
(33,37) --> 37,
(33,38) --> 43,
(33,39) --> 31,
(33,40) --> 21,
(33,41) --> 18,
(33,42) --> 19,
(33,43) --> 14,
(33,44) --> 20,
(33,45) --> 24,
(33,46) --> 28,
(33,47) --> 28,
(33,48) --> 23,
(33,49) --> 17,
(34,0) --> 10,
(34,1) --> 33,
(34,2) --> 20,
(34,3) --> 29,
(34,4) --> 7,
(34,5) --> 21,
(34,6) --> 18,
(34,7) --> 10,
(34,8) --> 7,
(34,9) --> 31,
(34,10) --> 28,
(34,11) --> 25,
(34,12) --> 19,
(34,13) --> 13,
(34,14) --> 21,
(34,15) --> 20,
(34,16) --> 29,
(34,17) --> 17,
(34,18) --> 44,
(34,19) --> 14,
(34,20) --> 31,
(34,21) --> 28,
(34,22) --> 36,
(34,23) --> 41,
(34,24) --> 43,
(34,25) --> 41,
(34,26) --> 11,
(34,27) --> 8,
(34,28) --> 28,
(34,29) --> 14,
(34,30) --> 16,
(34,31) --> 41,
(34,32) --> 31,
(34,33) --> 26,
(34,34) --> 0,
(34,35) --> 11,
(34,36) --> 30,
(34,37) --> 27,
(34,38) --> 26,
(34,39) --> 28,
(34,40) --> 22,
(34,41) --> 44,
(34,42) --> 44,
(34,43) --> 40,
(34,44) --> 30,
(34,45) --> 10,
(34,46) --> 2,
(34,47) --> 25,
(34,48) --> 19,
(34,49) --> 38,
(35,0) --> 18,
(35,1) --> 43,
(35,2) --> 31,
(35,3) --> 34,
(35,4) --> 18,
(35,5) --> 30,
(35,6) --> 27,
(35,7) --> 5,
(35,8) --> 5,
(35,9) --> 30,
(35,10) --> 22,
(35,11) --> 15,
(35,12) --> 20,
(35,13) --> 17,
(35,14) --> 10,
(35,15) --> 27,
(35,16) --> 37,
(35,17) --> 23,
(35,18) --> 46,
(35,19) --> 7,
(35,20) --> 38,
(35,21) --> 39,
(35,22) --> 47,
(35,23) --> 49,
(35,24) --> 49,
(35,25) --> 40,
(35,26) --> 15,
(35,27) --> 16,
(35,28) --> 39,
(35,29) --> 24,
(35,30) --> 27,
(35,31) --> 35,
(35,32) --> 33,
(35,33) --> 36,
(35,34) --> 11,
(35,35) --> 0,
(35,36) --> 40,
(35,37) --> 35,
(35,38) --> 18,
(35,39) --> 27,
(35,40) --> 25,
(35,41) --> 54,
(35,42) --> 54,
(35,43) --> 50,
(35,44) --> 34,
(35,45) --> 21,
(35,46) --> 9,
(35,47) --> 35,
(35,48) --> 30,
(35,49) --> 45,
(36,0) --> 33,
(36,1) --> 34,
(36,2) --> 24,
(36,3) --> 48,
(36,4) --> 27,
(36,5) --> 10,
(36,6) --> 32,
(36,7) --> 40,
(36,8) --> 35,
(36,9) --> 56,
(36,10) --> 58,
(36,11) --> 55,
(36,12) --> 45,
(36,13) --> 26,
(36,14) --> 48,
(36,15) --> 16,
(36,16) --> 42,
(36,17) --> 40,
(36,18) --> 64,
(36,19) --> 39,
(36,20) --> 13,
(36,21) --> 10,
(36,22) --> 28,
(36,23) --> 47,
(36,24) --> 57,
(36,25) --> 65,
(36,26) --> 38,
(36,27) --> 24,
(36,28) --> 20,
(36,29) --> 16,
(36,30) --> 19,
(36,31) --> 70,
(36,32) --> 54,
(36,33) --> 34,
(36,34) --> 30,
(36,35) --> 40,
(36,36) --> 0,
(36,37) --> 8,
(36,38) --> 56,
(36,39) --> 55,
(36,40) --> 47,
(36,41) --> 43,
(36,42) --> 39,
(36,43) --> 39,
(36,44) --> 50,
(36,45) --> 20,
(36,46) --> 32,
(36,47) --> 6,
(36,48) --> 13,
(36,49) --> 50,
(37,0) --> 32,
(37,1) --> 39,
(37,2) --> 26,
(37,3) --> 49,
(37,4) --> 25,
(37,5) --> 7,
(37,6) --> 33,
(37,7) --> 36,
(37,8) --> 30,
(37,9) --> 56,
(37,10) --> 55,
(37,11) --> 50,
(37,12) --> 44,
(37,13) --> 20,
(37,14) --> 42,
(37,15) --> 9,
(37,16) --> 44,
(37,17) --> 40,
(37,18) --> 65,
(37,19) --> 33,
(37,20) --> 6,
(37,21) --> 16,
(37,22) --> 34,
(37,23) --> 51,
(37,24) --> 60,
(37,25) --> 65,
(37,26) --> 36,
(37,27) --> 20,
(37,28) --> 25,
(37,29) --> 14,
(37,30) --> 20,
(37,31) --> 68,
(37,32) --> 54,
(37,33) --> 37,
(37,34) --> 27,
(37,35) --> 35,
(37,36) --> 8,
(37,37) --> 0,
(37,38) --> 53,
(37,39) --> 54,
(37,40) --> 46,
(37,41) --> 48,
(37,42) --> 45,
(37,43) --> 44,
(37,44) --> 51,
(37,45) --> 18,
(37,46) --> 28,
(37,47) --> 10,
(37,48) --> 13,
(37,49) --> 53,
(38,0) --> 27,
(38,1) --> 51,
(38,2) --> 41,
(38,3) --> 33,
(38,4) --> 31,
(38,5) --> 47,
(38,6) --> 35,
(38,7) --> 16,
(38,8) --> 22,
(38,9) --> 22,
(38,10) --> 7,
(38,11) --> 8,
(38,12) --> 19,
(38,13) --> 34,
(38,14) --> 17,
(38,15) --> 45,
(38,16) --> 40,
(38,17) --> 26,
(38,18) --> 39,
(38,19) --> 23,
(38,20) --> 55,
(38,21) --> 53,
(38,22) --> 57,
(38,23) --> 52,
(38,24) --> 46,
(38,25) --> 30,
(38,26) --> 21,
(38,27) --> 33,
(38,28) --> 51,
(38,29) --> 40,
(38,30) --> 40,
(38,31) --> 19,
(38,32) --> 28,
(38,33) --> 43,
(38,34) --> 26,
(38,35) --> 18,
(38,36) --> 56,
(38,37) --> 53,
(38,38) --> 0,
(38,39) --> 18,
(38,40) --> 23,
(38,41) --> 60,
(38,42) --> 61,
(38,43) --> 56,
(38,44) --> 32,
(38,45) --> 36,
(38,46) --> 24,
(38,47) --> 51,
(38,48) --> 45,
(38,49) --> 45,
(39,0) --> 22,
(39,1) --> 39,
(39,2) --> 35,
(39,3) --> 17,
(39,4) --> 29,
(39,5) --> 47,
(39,6) --> 26,
(39,7) --> 22,
(39,8) --> 29,
(39,9) --> 4,
(39,10) --> 12,
(39,11) --> 25,
(39,12) --> 10,
(39,13) --> 41,
(39,14) --> 32,
(39,15) --> 48,
(39,16) --> 26,
(39,17) --> 16,
(39,18) --> 21,
(39,19) --> 34,
(39,20) --> 58,
(39,21) --> 49,
(39,22) --> 47,
(39,23) --> 37,
(39,24) --> 29,
(39,25) --> 14,
(39,26) --> 18,
(39,27) --> 36,
(39,28) --> 44,
(39,29) --> 40,
(39,30) --> 36,
(39,31) --> 16,
(39,32) --> 11,
(39,33) --> 31,
(39,34) --> 28,
(39,35) --> 27,
(39,36) --> 55,
(39,37) --> 54,
(39,38) --> 18,
(39,39) --> 0,
(39,40) --> 10,
(39,41) --> 47,
(39,42) --> 48,
(39,43) --> 43,
(39,44) --> 15,
(39,45) --> 36,
(39,46) --> 28,
(39,47) --> 49,
(39,48) --> 43,
(39,49) --> 28,
(40,0) --> 14,
(40,1) --> 29,
(40,2) --> 25,
(40,3) --> 10,
(40,4) --> 21,
(40,5) --> 39,
(40,6) --> 16,
(40,7) --> 20,
(40,8) --> 25,
(40,9) --> 10,
(40,10) --> 19,
(40,11) --> 29,
(40,12) --> 5,
(40,13) --> 35,
(40,14) --> 33,
(40,15) --> 41,
(40,16) --> 17,
(40,17) --> 7,
(40,18) --> 22,
(40,19) --> 32,
(40,20) --> 51,
(40,21) --> 40,
(40,22) --> 37,
(40,23) --> 29,
(40,24) --> 24,
(40,25) --> 19,
(40,26) --> 12,
(40,27) --> 30,
(40,28) --> 34,
(40,29) --> 33,
(40,30) --> 27,
(40,31) --> 26,
(40,32) --> 9,
(40,33) --> 21,
(40,34) --> 22,
(40,35) --> 25,
(40,36) --> 47,
(40,37) --> 46,
(40,38) --> 23,
(40,39) --> 10,
(40,40) --> 0,
(40,41) --> 38,
(40,42) --> 39,
(40,43) --> 34,
(40,44) --> 9,
(40,45) --> 28,
(40,46) --> 22,
(40,47) --> 40,
(40,48) --> 34,
(40,49) --> 22,
(41,0) --> 36,
(41,1) --> 11,
(41,2) --> 26,
(41,3) --> 29,
(41,4) --> 38,
(41,5) --> 43,
(41,6) --> 27,
(41,7) --> 50,
(41,8) --> 51,
(41,9) --> 44,
(41,10) --> 56,
(41,11) --> 64,
(41,12) --> 41,
(41,13) --> 53,
(41,14) --> 64,
(41,15) --> 50,
(41,16) --> 21,
(41,17) --> 34,
(41,18) --> 39,
(41,19) --> 59,
(41,20) --> 54,
(41,21) --> 32,
(41,22) --> 15,
(41,23) --> 11,
(41,24) --> 26,
(41,25) --> 47,
(41,26) --> 41,
(41,27) --> 46,
(41,28) --> 23,
(41,29) --> 41,
(41,30) --> 32,
(41,31) --> 62,
(41,32) --> 37,
(41,33) --> 18,
(41,34) --> 44,
(41,35) --> 54,
(41,36) --> 43,
(41,37) --> 48,
(41,38) --> 60,
(41,39) --> 47,
(41,40) --> 38,
(41,41) --> 0,
(41,42) --> 4,
(41,43) --> 4,
(41,44) --> 32,
(41,45) --> 40,
(41,46) --> 46,
(41,47) --> 38,
(41,48) --> 36,
(41,49) --> 21,
(42,0) --> 36,
(42,1) --> 11,
(42,2) --> 24,
(42,3) --> 32,
(42,4) --> 37,
(42,5) --> 40,
(42,6) --> 27,
(42,7) --> 50,
(42,8) --> 51,
(42,9) --> 46,
(42,10) --> 58,
(42,11) --> 65,
(42,12) --> 42,
(42,13) --> 51,
(42,14) --> 64,
(42,15) --> 48,
(42,16) --> 23,
(42,17) --> 35,
(42,18) --> 42,
(42,19) --> 58,
(42,20) --> 51,
(42,21) --> 29,
(42,22) --> 11,
(42,23) --> 15,
(42,24) --> 30,
(42,25) --> 50,
(42,26) --> 41,
(42,27) --> 45,
(42,28) --> 20,
(42,29) --> 39,
(42,30) --> 30,
(42,31) --> 64,
(42,32) --> 40,
(42,33) --> 19,
(42,34) --> 44,
(42,35) --> 54,
(42,36) --> 39,
(42,37) --> 45,
(42,38) --> 61,
(42,39) --> 48,
(42,40) --> 39,
(42,41) --> 4,
(42,42) --> 0,
(42,43) --> 5,
(42,44) --> 35,
(42,45) --> 38,
(42,46) --> 46,
(42,47) --> 35,
(42,48) --> 34,
(42,49) --> 24,
(43,0) --> 32,
(43,1) --> 7,
(43,2) --> 21,
(43,3) --> 26,
(43,4) --> 33,
(43,5) --> 39,
(43,6) --> 23,
(43,7) --> 46,
(43,8) --> 47,
(43,9) --> 41,
(43,10) --> 53,
(43,11) --> 60,
(43,12) --> 37,
(43,13) --> 49,
(43,14) --> 60,
(43,15) --> 46,
(43,16) --> 18,
(43,17) --> 30,
(43,18) --> 38,
(43,19) --> 54,
(43,20) --> 50,
(43,21) --> 29,
(43,22) --> 12,
(43,23) --> 10,
(43,24) --> 26,
(43,25) --> 45,
(43,26) --> 37,
(43,27) --> 42,
(43,28) --> 19,
(43,29) --> 37,
(43,30) --> 28,
(43,31) --> 59,
(43,32) --> 35,
(43,33) --> 14,
(43,34) --> 40,
(43,35) --> 50,
(43,36) --> 39,
(43,37) --> 44,
(43,38) --> 56,
(43,39) --> 43,
(43,40) --> 34,
(43,41) --> 4,
(43,42) --> 5,
(43,43) --> 0,
(43,44) --> 29,
(43,45) --> 36,
(43,46) --> 42,
(43,47) --> 34,
(43,48) --> 32,
(43,49) --> 19,
(44,0) --> 21,
(44,1) --> 26,
(44,2) --> 27,
(44,3) --> 3,
(44,4) --> 27,
(44,5) --> 44,
(44,6) --> 18,
(44,7) --> 29,
(44,8) --> 34,
(44,9) --> 12,
(44,10) --> 26,
(44,11) --> 38,
(44,12) --> 14,
(44,13) --> 43,
(44,14) --> 42,
(44,15) --> 48,
(44,16) --> 12,
(44,17) --> 13,
(44,18) --> 14,
(44,19) --> 41,
(44,20) --> 56,
(44,21) --> 42,
(44,22) --> 35,
(44,23) --> 22,
(44,24) --> 15,
(44,25) --> 16,
(44,26) --> 20,
(44,27) --> 37,
(44,28) --> 35,
(44,29) --> 38,
(44,30) --> 31,
(44,31) --> 30,
(44,32) --> 5,
(44,33) --> 20,
(44,34) --> 30,
(44,35) --> 34,
(44,36) --> 50,
(44,37) --> 51,
(44,38) --> 32,
(44,39) --> 15,
(44,40) --> 9,
(44,41) --> 32,
(44,42) --> 35,
(44,43) --> 29,
(44,44) --> 0,
(44,45) --> 34,
(44,46) --> 31,
(44,47) --> 44,
(44,48) --> 38,
(44,49) --> 13,
(45,0) --> 14,
(45,1) --> 29,
(45,2) --> 15,
(45,3) --> 33,
(45,4) --> 7,
(45,5) --> 11,
(45,6) --> 17,
(45,7) --> 20,
(45,8) --> 16,
(45,9) --> 38,
(45,10) --> 37,
(45,11) --> 35,
(45,12) --> 26,
(45,13) --> 13,
(45,14) --> 30,
(45,15) --> 13,
(45,16) --> 30,
(45,17) --> 22,
(45,18) --> 49,
(45,19) --> 22,
(45,20) --> 23,
(45,21) --> 18,
(45,22) --> 29,
(45,23) --> 39,
(45,24) --> 45,
(45,25) --> 47,
(45,26) --> 18,
(45,27) --> 6,
(45,28) --> 21,
(45,29) --> 4,
(45,30) --> 8,
(45,31) --> 50,
(45,32) --> 36,
(45,33) --> 24,
(45,34) --> 10,
(45,35) --> 21,
(45,36) --> 20,
(45,37) --> 18,
(45,38) --> 36,
(45,39) --> 36,
(45,40) --> 28,
(45,41) --> 40,
(45,42) --> 38,
(45,43) --> 36,
(45,44) --> 34,
(45,45) --> 0,
(45,46) --> 12,
(45,47) --> 15,
(45,48) --> 9,
(45,49) --> 39,
(46,0) --> 11,
(46,1) --> 35,
(46,2) --> 22,
(46,3) --> 30,
(46,4) --> 9,
(46,5) --> 22,
(46,6) --> 20,
(46,7) --> 8,
(46,8) --> 5,
(46,9) --> 30,
(46,10) --> 26,
(46,11) --> 23,
(46,12) --> 18,
(46,13) --> 13,
(46,14) --> 19,
(46,15) --> 21,
(46,16) --> 31,
(46,17) --> 18,
(46,18) --> 44,
(46,19) --> 13,
(46,20) --> 32,
(46,21) --> 30,
(46,22) --> 38,
(46,23) --> 42,
(46,24) --> 44,
(46,25) --> 40,
(46,26) --> 11,
(46,27) --> 9,
(46,28) --> 31,
(46,29) --> 16,
(46,30) --> 18,
(46,31) --> 39,
(46,32) --> 31,
(46,33) --> 28,
(46,34) --> 2,
(46,35) --> 9,
(46,36) --> 32,
(46,37) --> 28,
(46,38) --> 24,
(46,39) --> 28,
(46,40) --> 22,
(46,41) --> 46,
(46,42) --> 46,
(46,43) --> 42,
(46,44) --> 31,
(46,45) --> 12,
(46,46) --> 0,
(46,47) --> 27,
(46,48) --> 21,
(46,49) --> 39,
(47,0) --> 27,
(47,1) --> 29,
(47,2) --> 18,
(47,3) --> 42,
(47,4) --> 21,
(47,5) --> 7,
(47,6) --> 25,
(47,7) --> 35,
(47,8) --> 30,
(47,9) --> 50,
(47,10) --> 52,
(47,11) --> 50,
(47,12) --> 39,
(47,13) --> 23,
(47,14) --> 44,
(47,15) --> 15,
(47,16) --> 36,
(47,17) --> 34,
(47,18) --> 58,
(47,19) --> 35,
(47,20) --> 16,
(47,21) --> 6,
(47,22) --> 24,
(47,23) --> 41,
(47,24) --> 51,
(47,25) --> 59,
(47,26) --> 32,
(47,27) --> 20,
(47,28) --> 15,
(47,29) --> 11,
(47,30) --> 13,
(47,31) --> 64,
(47,32) --> 47,
(47,33) --> 28,
(47,34) --> 25,
(47,35) --> 35,
(47,36) --> 6,
(47,37) --> 10,
(47,38) --> 51,
(47,39) --> 49,
(47,40) --> 40,
(47,41) --> 38,
(47,42) --> 35,
(47,43) --> 34,
(47,44) --> 44,
(47,45) --> 15,
(47,46) --> 27,
(47,47) --> 0,
(47,48) --> 6,
(47,49) --> 44,
(48,0) --> 21,
(48,1) --> 26,
(48,2) --> 13,
(48,3) --> 36,
(48,4) --> 14,
(48,5) --> 7,
(48,6) --> 20,
(48,7) --> 29,
(48,8) --> 25,
(48,9) --> 44,
(48,10) --> 46,
(48,11) --> 45,
(48,12) --> 33,
(48,13) --> 20,
(48,14) --> 39,
(48,15) --> 14,
(48,16) --> 31,
(48,17) --> 27,
(48,18) --> 52,
(48,19) --> 30,
(48,20) --> 19,
(48,21) --> 9,
(48,22) --> 23,
(48,23) --> 38,
(48,24) --> 47,
(48,25) --> 53,
(48,26) --> 26,
(48,27) --> 15,
(48,28) --> 14,
(48,29) --> 6,
(48,30) --> 7,
(48,31) --> 58,
(48,32) --> 41,
(48,33) --> 23,
(48,34) --> 19,
(48,35) --> 30,
(48,36) --> 13,
(48,37) --> 13,
(48,38) --> 45,
(48,39) --> 43,
(48,40) --> 34,
(48,41) --> 36,
(48,42) --> 34,
(48,43) --> 32,
(48,44) --> 38,
(48,45) --> 9,
(48,46) --> 21,
(48,47) --> 6,
(48,48) --> 0,
(48,49) --> 40,
(49,0) --> 28,
(49,1) --> 19,
(49,2) --> 27,
(49,3) --> 11,
(49,4) --> 33,
(49,5) --> 47,
(49,6) --> 21,
(49,7) --> 40,
(49,8) --> 44,
(49,9) --> 25,
(49,10) --> 40,
(49,11) --> 51,
(49,12) --> 26,
(49,13) --> 50,
(49,14) --> 53,
(49,15) --> 52,
(49,16) --> 9,
(49,17) --> 22,
(49,18) --> 18,
(49,19) --> 51,
(49,20) --> 59,
(49,21) --> 41,
(49,22) --> 29,
(49,23) --> 10,
(49,24) --> 7,
(49,25) --> 26,
(49,26) --> 30,
(49,27) --> 43,
(49,28) --> 32,
(49,29) --> 42,
(49,30) --> 33,
(49,31) --> 42,
(49,32) --> 18,
(49,33) --> 17,
(49,34) --> 38,
(49,35) --> 45,
(49,36) --> 50,
(49,37) --> 53,
(49,38) --> 45,
(49,39) --> 28,
(49,40) --> 22,
(49,41) --> 21,
(49,42) --> 24,
(49,43) --> 19,
(49,44) --> 13,
(49,45) --> 39,
(49,46) --> 39,
(49,47) --> 44,
(49,48) --> 40,
(49,49) --> 0)
letting orderWeights be function (
1 --> 18
,
2 --> 26
,
3 --> 11
,
4 --> 30
,
5 --> 21
,
6 --> 19
,
7 --> 15
,
8 --> 16
,
9 --> 29
,
10 --> 26
,
11 --> 37
,
12 --> 16
,
13 --> 12
,
14 --> 31
,
15 --> 8
,
16 --> 19
,
17 --> 20
,
18 --> 13
,
19 --> 15
,
20 --> 22
,
21 --> 28
,
22 --> 12
,
23 --> 6
,
24 --> 27
,
25 --> 14
,
26 --> 18
,
27 --> 17
,
28 --> 29
,
29 --> 13
,
30 --> 22
,
31 --> 25
,
32 --> 28
,
33 --> 27
,
34 --> 19
,
35 --> 10
,
36 --> 12
,
37 --> 14
,
38 --> 24
,
39 --> 16
,
40 --> 33
,
41 --> 15
,
42 --> 11
,
43 --> 18
,
44 --> 17
,
45 --> 21
,
46 --> 27
,
47 --> 19
,
48 --> 20
,
49 --> 5
)
letting vehicleCapacity be 150
